c preprocessed version of 1aac_graph, 104 vertices, 1316 edges
p td 104 1316
102 103
101 103
101 102
100 103
100 102
100 101
99 103
99 102
99 101
99 100
98 102
98 101
98 100
98 99
97 101
97 99
97 98
96 100
96 98
96 97
95 97
95 96
94 97
94 96
94 95
93 96
93 95
93 94
92 96
92 95
92 94
92 93
91 94
91 93
91 92
90 99
90 98
90 97
90 96
90 95
90 94
90 93
90 92
90 91
89 102
89 100
89 99
89 98
89 97
89 96
89 94
89 91
89 90
88 101
88 100
88 99
88 98
88 97
88 94
88 90
88 89
87 102
87 101
87 100
87 99
87 98
87 90
87 89
87 88
86 103
86 102
86 101
86 100
86 99
86 98
86 97
86 88
86 87
85 103
85 102
85 101
85 100
85 99
85 89
85 88
85 87
85 86
84 103
84 102
84 101
84 100
84 87
84 86
84 85
83 102
83 100
83 87
83 85
83 84
82 102
82 100
82 87
82 85
82 84
82 83
81 103
81 102
81 101
81 100
81 99
81 98
81 89
81 87
81 86
81 85
81 84
81 83
81 82
80 102
80 100
80 82
80 81
79 102
79 100
79 98
79 89
79 87
79 85
79 83
79 82
79 81
79 80
78 100
78 81
78 80
78 79
77 100
77 98
77 96
77 91
77 89
77 87
77 81
77 79
77 78
76 79
76 78
76 77
75 77
75 76
74 76
74 75
73 75
73 74
72 92
72 75
72 74
72 73
71 98
71 96
71 89
71 79
71 78
71 77
71 76
71 75
71 74
71 73
71 72
70 93
70 92
70 91
70 77
70 75
70 72
70 71
69 91
69 79
69 77
69 75
69 72
69 71
69 70
68 100
68 98
68 96
68 91
68 89
68 87
68 81
68 79
68 78
68 77
68 76
68 75
68 71
68 70
68 69
67 94
67 92
67 91
67 90
67 89
67 79
67 77
67 70
67 69
67 68
66 102
66 100
66 98
66 91
66 89
66 87
66 85
66 82
66 81
66 80
66 79
66 78
66 77
66 71
66 69
66 68
66 67
65 94
65 91
65 90
65 67
65 66
64 67
64 66
64 65
63 66
63 65
63 64
62 89
62 87
62 83
62 81
62 79
62 68
62 67
62 66
62 65
62 64
62 63
61 102
61 100
61 99
61 98
61 89
61 88
61 87
61 86
61 85
61 83
61 82
61 81
61 80
61 79
61 77
61 68
61 66
61 65
61 64
61 63
61 62
60 102
60 100
60 99
60 98
60 97
60 94
60 90
60 89
60 88
60 87
60 86
60 85
60 83
60 81
60 79
60 68
60 66
60 65
60 62
60 61
59 85
59 65
59 64
59 63
59 62
59 61
59 60
58 67
58 66
58 65
58 64
58 63
58 62
58 60
58 59
57 97
57 94
57 91
57 90
57 89
57 88
57 87
57 67
57 66
57 65
57 64
57 61
57 60
57 59
57 58
56 102
56 100
56 99
56 98
56 96
56 91
56 90
56 89
56 88
56 87
56 86
56 85
56 83
56 81
56 79
56 77
56 68
56 67
56 66
56 65
56 62
56 61
56 60
56 59
56 58
56 57
55 98
55 97
55 94
55 92
55 91
55 90
55 89
55 88
55 87
55 79
55 77
55 70
55 69
55 68
55 67
55 66
55 65
55 64
55 61
55 60
55 58
55 57
55 56
54 102
54 100
54 99
54 98
54 97
54 96
54 91
54 90
54 89
54 88
54 87
54 81
54 79
54 78
54 77
54 76
54 71
54 69
54 68
54 67
54 66
54 62
54 61
54 60
54 56
54 55
53 98
53 96
53 94
53 93
53 92
53 91
53 90
53 89
53 79
53 77
53 72
53 71
53 70
53 69
53 68
53 67
53 66
53 65
53 57
53 56
53 55
53 54
52 100
52 98
52 96
52 95
52 93
52 92
52 91
52 90
52 89
52 77
52 75
52 73
52 72
52 71
52 70
52 68
52 54
52 53
51 96
51 93
51 92
51 91
51 77
51 75
51 73
51 72
51 71
51 70
51 69
51 67
51 55
51 53
51 52
50 96
50 95
50 93
50 92
50 73
50 72
50 70
50 53
50 52
50 51
49 74
49 73
49 72
49 70
49 52
49 51
49 50
48 96
48 93
48 74
48 73
48 52
48 51
48 50
48 49
47 76
47 74
47 73
47 52
47 49
47 48
46 98
46 96
46 93
46 89
46 79
46 77
46 76
46 75
46 74
46 73
46 72
46 71
46 70
46 69
46 68
46 54
46 53
46 52
46 51
46 50
46 49
46 48
46 47
45 78
45 77
45 76
45 75
45 74
45 73
45 71
45 68
45 54
45 52
45 48
45 47
45 46
44 102
44 100
44 98
44 96
44 89
44 87
44 81
44 79
44 78
44 77
44 76
44 75
44 71
44 70
44 69
44 68
44 66
44 61
44 56
44 55
44 54
44 53
44 52
44 48
44 47
44 46
44 45
43 100
43 81
43 80
43 79
43 78
43 77
43 76
43 75
43 74
43 71
43 68
43 54
43 47
43 46
43 45
43 44
42 102
42 101
42 100
42 99
42 98
42 96
42 89
42 87
42 81
42 80
42 79
42 78
42 77
42 76
42 71
42 68
42 66
42 61
42 60
42 56
42 54
42 52
42 46
42 45
42 44
42 43
41 102
41 100
41 82
41 81
41 80
41 79
41 78
41 77
41 76
41 54
41 45
41 44
41 43
41 42
40 103
40 102
40 100
40 87
40 82
40 81
40 80
40 79
40 78
40 44
40 43
40 42
40 41
39 102
39 82
39 81
39 80
39 42
39 41
39 40
38 103
38 102
38 100
38 87
38 85
38 84
38 83
38 82
38 81
38 80
38 42
38 40
38 39
37 103
37 102
37 101
37 100
37 84
37 81
37 42
37 41
37 40
37 39
37 38
36 103
36 102
36 101
36 100
36 99
36 98
36 89
36 87
36 85
36 84
36 83
36 81
36 80
36 79
36 78
36 61
36 60
36 56
36 54
36 44
36 43
36 42
36 41
36 40
36 39
36 38
36 37
35 103
35 102
35 101
35 100
35 99
35 86
35 84
35 81
35 42
35 40
35 37
35 36
34 103
34 102
34 101
34 100
34 99
34 98
34 96
34 89
34 87
34 86
34 81
34 79
34 77
34 68
34 61
34 60
34 56
34 54
34 44
34 43
34 42
34 41
34 40
34 37
34 36
34 35
33 103
33 101
33 100
33 99
33 98
33 97
33 88
33 86
33 36
33 35
33 34
32 101
32 99
32 98
32 97
32 96
32 95
32 90
32 89
32 88
32 86
32 54
32 52
32 44
32 35
32 34
32 33
31 100
31 98
31 45
31 44
31 42
31 40
31 36
31 35
31 34
31 33
31 32
30 98
30 96
30 52
30 48
30 47
30 45
30 44
30 42
30 34
30 32
30 31
29 100
29 99
29 98
29 97
29 96
29 93
29 90
29 89
29 88
29 87
29 81
29 79
29 77
29 71
29 68
29 56
29 55
29 54
29 53
29 52
29 48
29 46
29 45
29 44
29 43
29 42
29 36
29 34
29 33
29 32
29 31
29 30
28 98
28 97
28 96
28 95
28 93
28 52
28 48
28 47
28 44
28 33
28 32
28 31
28 30
28 29
27 96
27 95
27 93
27 92
27 52
27 51
27 50
27 49
27 48
27 46
27 29
27 28
26 52
26 50
26 48
26 47
26 30
26 28
26 27
25 96
25 74
25 73
25 52
25 49
25 48
25 47
25 46
25 45
25 44
25 31
25 30
25 29
25 28
25 27
25 26
24 100
24 98
24 97
24 96
24 95
24 93
24 92
24 89
24 79
24 77
24 76
24 75
24 73
24 71
24 70
24 68
24 56
24 54
24 53
24 52
24 51
24 50
24 49
24 48
24 47
24 46
24 45
24 44
24 43
24 42
24 34
24 32
24 31
24 30
24 29
24 28
24 27
24 26
24 25
23 98
23 76
23 74
23 52
23 48
23 47
23 46
23 45
23 44
23 43
23 42
23 34
23 31
23 30
23 29
23 28
23 26
23 25
23 24
22 102
22 101
22 100
22 99
22 98
22 96
22 89
22 87
22 81
22 79
22 78
22 77
22 71
22 68
22 61
22 56
22 54
22 52
22 47
22 46
22 45
22 44
22 43
22 42
22 41
22 40
22 36
22 35
22 34
22 33
22 32
22 31
22 30
22 29
22 28
22 25
22 24
22 23
21 78
21 77
21 76
21 74
21 71
21 54
21 47
21 46
21 45
21 44
21 43
21 42
21 41
21 40
21 36
21 34
21 31
21 30
21 29
21 25
21 24
21 23
21 22
20 102
20 101
20 100
20 98
20 89
20 87
20 81
20 80
20 79
20 78
20 54
20 45
20 44
20 43
20 42
20 41
20 40
20 37
20 36
20 35
20 34
20 31
20 29
20 22
20 21
19 80
19 79
19 78
19 77
19 76
19 47
19 45
19 44
19 43
19 42
19 41
19 40
19 36
19 34
19 23
19 22
19 21
19 20
18 43
18 40
18 37
18 36
18 21
18 20
18 19
17 43
17 21
17 19
17 18
16 80
16 78
16 76
16 45
16 43
16 42
16 41
16 40
16 21
16 20
16 19
16 18
16 17
15 78
15 77
15 76
15 75
15 74
15 71
15 68
15 54
15 47
15 46
15 45
15 44
15 43
15 42
15 41
15 40
15 24
15 23
15 22
15 21
15 20
15 19
15 18
15 17
15 16
14 78
14 76
14 75
14 45
14 43
14 16
14 15
13 76
13 75
13 74
13 73
13 45
13 17
13 15
13 14
12 78
12 76
12 75
12 74
12 73
12 47
12 46
12 45
12 44
12 43
12 25
12 24
12 23
12 22
12 21
12 19
12 15
12 14
12 13
11 78
11 76
11 75
11 74
11 73
11 72
11 45
11 43
11 15
11 14
11 13
11 12
10 78
10 77
10 76
10 75
10 72
10 71
10 69
10 68
10 45
10 43
10 41
10 21
10 19
10 16
10 15
10 14
10 13
10 12
10 11
9 79
9 78
9 77
9 76
9 75
9 74
9 72
9 71
9 70
9 69
9 68
9 66
9 54
9 53
9 52
9 51
9 46
9 45
9 44
9 43
9 29
9 24
9 15
9 14
9 11
9 10
8 77
8 75
8 72
8 71
8 70
8 69
8 68
8 51
8 14
8 11
8 10
8 9
7 79
7 77
7 71
7 69
7 68
7 67
7 66
7 64
7 62
7 10
7 9
7 8
6 80
6 79
6 78
6 77
6 76
6 75
6 71
6 68
6 45
6 43
6 41
6 19
6 16
6 15
6 14
6 11
6 10
6 9
6 8
6 7
5 82
5 80
5 79
5 78
5 77
5 76
5 68
5 43
5 42
5 41
5 21
5 19
5 16
5 15
5 14
5 10
5 9
5 8
5 7
5 6
4 89
4 87
4 82
4 81
4 80
4 79
4 78
4 77
4 76
4 71
4 69
4 68
4 67
4 66
4 64
4 62
4 61
4 56
4 54
4 44
4 43
4 42
4 41
4 9
4 8
4 7
4 6
4 5
3 83
3 82
3 81
3 80
3 79
3 78
3 66
3 62
3 61
3 43
3 41
3 39
3 16
3 7
3 6
3 5
3 4
2 102
2 100
2 98
2 89
2 87
2 85
2 83
2 82
2 81
2 80
2 79
2 78
2 77
2 68
2 66
2 64
2 62
2 61
2 60
2 56
2 54
2 44
2 42
2 41
2 40
2 36
2 34
2 22
2 7
2 4
2 3
1 102
1 100
1 87
1 85
1 84
1 83
1 82
1 81
1 79
1 66
1 63
1 62
1 61
1 60
1 59
1 56
1 42
1 38
1 36
1 4
1 3
1 2
0 87
0 83
0 82
0 79
0 66
0 64
0 63
0 62
0 61
0 56
0 7
0 4
0 3
0 2
0 1
